100
128
17
61
58
45
18
6
26
25
61
43
14
10
53
5
15
7
20
27
15
26
10
32
50
40
37
19
9
19
47
34
51
9
53
27
10
48
11
32
36
1
9
60
10
8
34
10
27
31
56
19
60
46
20
1
3
60
19
2
40
17
28
43
45
16
34
32
23
40
21
25
3
39
27
52
22
52
37
38
31
21
21
55
27
21
49
58
30
51
52
31
47
45
1
51
36
64
3
60
40
13